param set_len = 100;
param target := 720;
set values := 30, 27, 24, 23, 0, 6, 14, 8, 11, 21, 8, 9, 18, 1, 25, 6, 22, 9, 11, 8, 20, 3, 28, 8, 24, 3, 1, 14, 31, 0, 17, 29, 5, 0, 4, 27, 20, 13, 29, 10, 31, 14, 12, 17, 6, 6, 0, 17, 30, 19, 8, 2, 26, 26, 24, 5, 18, 18, 11, 24, 7, 31, 20, 4, 11, 31, 9, 3, 2, 21, 12, 12, 2, 26, 7, 29, 10, 27, 16, 9, 28, 12, 1, 2, 31, 23, 15, 0, 13, 6, 0, 1, 14, 12, 19, 4, 16, 4, 20, 19, ;
